0 1 7
0 5 8
0 6 2
0 7 2
1 0 3
1 5 5
1 4 2
1 8 9
1 3 2
1 2 11
1 7 3
2 6 2
2 1 32
2 3 56
2 12 2
3 6 7
3 2 8
3 11 8
3 10 17
3 8 23
3 1 2
4 1 2
4 9 2
4 5 56
5 7 2
5 0 34
5 1 5
5 4 5
5 8 6
5 9 77
6 0 13
6 2 2
6 3 12
7 0 2
7 5 2
7 1 12
7 10 4
8 5 5
8 1 4
8 3 15
8 12 2
8 10 2
8 9 76
9 5 2
9 4 21
9 8 22
9 10 100
10 7 8
10 9 9
10 8 2
10 3 5
10 11 2
11 10 2
11 3 2
11 12 7
12 2 2
12 8 2
12 11 8